B=5;
D=1;
P=8;
S=8;
demands = [3 4 2 4 2 3 5 2 ];
capacities = [8 1 1 3 1 3 5 7 ];
dist_start = [7 5 3 10 2 4 3 2 ];
dist = [4 8 2 7 8 6 5 1 9 6 8 6 9 8 3 1 8 5 8 6 4 4 3 1 8 2 4 4 6 8 1 1 7 4 8 4 1 4 7 10 9 6 7 10 3 1 10 1 5 10 8 10 5 10 2 4 4 8 7 9 5 10 10 1 ];
